p cnf 14 28
14 -13 5 0
-14 -12 -11 0
-14 12 3 0
-14 4 2 0
13 12 7 0
-13 11 3 0
-13 10 9 0
-13 8 3 0
13 -7 -5 0
-13 -6 -3 0
12 -11 -4 0
12 10 -8 0
12 -10 2 0
-12 10 2 0
-12 -9 -8 0
-12 -7 5 0
-12 -7 3 0
-11 10 -8 0
11 -2 -1 0
10 -8 6 0
9 -5 4 0
-9 4 2 0
-8 6 -1 0
-8 -5 4 0
8 4 -1 0
8 -3 -2 0
7 -6 -3 0
6 4 1 0
